1931, 0, 0, 96, 1
1932, 0, 1, 95, 3
1933, 0, 2, 82, 2
1934, 0, 3, 69, 0
1935, 1, 0, 49, 3
1936, 1, 1, 81, 2
1937, 1, 2, 70, 1
1938, 1, 3, 61, 0
1939, 2, 0, 70, 0
1940, 2, 1, 89, 2
1941, 2, 2, 76, 1
1942, 2, 3, 42, 3
1943, 3, 0, 45, 2
1944, 3, 1, 65, 3
1945, 3, 2, 38, 0
1946, 3, 3, 80, 1
